Version identifier: 20.1.0.0 | 2020-11-10 | 9bedb6d68
CPXPARAM_Threads                                 1
CPXPARAM_TimeLimit                               7200
CPXPARAM_MIP_Tolerances_MIPGap                   0
Generic callback                                 0x60
1 of 1 MIP starts provided solutions.
MIP start 'm1' defined initial solution with objective 1306.0886.
Tried aggregator 1 time.
Reduced MIP has 1 rows, 1001 columns, and 1000 nonzeros.
Reduced MIP has 1000 binaries, 0 generals, 0 SOSs, and 0 indicators.
Presolve time = 0.00 sec. (0.30 ticks)
Probing time = 0.00 sec. (0.11 ticks)
Tried aggregator 1 time.
Reduced MIP has 1 rows, 1001 columns, and 1000 nonzeros.
Reduced MIP has 1000 binaries, 0 generals, 0 SOSs, and 0 indicators.
Presolve time = 0.00 sec. (0.31 ticks)
Probing time = 0.00 sec. (0.11 ticks)
MIP emphasis: balance optimality and feasibility.
MIP search method: dynamic search.
Parallel mode: none, using 1 thread.
Root relaxation solution time = 0.00 sec. (0.21 ticks)

        Nodes                                         Cuts/
   Node  Left     Objective  IInf  Best Integer    Best Bound    ItCnt     Gap

*     0+    0                         1306.0886     4368.0000           234.43%
      0     0     1770.8470     2     1306.0886     4368.0000        0  234.43%
      0     0     1592.6053     3     1306.0886 UserPurge2: 1       15   21.94%
      0     0     1564.9050     5     1306.0886 UserPurge1: 1       20   19.82%
      0     0     1506.5223     6     1306.0886 UserPurge2: 1       29   15.35%
      0     0     1494.8828     7     1306.0886 UserPurge1: 1       41   14.45%
      0     0     1457.7038     7     1306.0886 UserPurge2: 1       63   11.61%
      0     0     1445.8885     8     1306.0886 UserPurge1: 1       70   10.70%
      0     0     1426.6736     6     1306.0886 UserPurge2: 1       95    9.23%
      0     0     1421.1512     7     1306.0886 UserPurge2: 1      103    8.81%
      0     0     1417.7583     9     1306.0886 UserPurge1: 1      111    8.55%
      0     0     1407.8223     8     1306.0886 UserPurge2: 1      135    7.79%
      0     0     1405.1493     9     1306.0886 UserPurge1: 2      146    7.58%
      0     0     1398.7051    10     1306.0886 UserPurge2: 1      167    7.09%
      0     0     1393.2323     8     1306.0886 UserPurge2: 1      188    6.67%
      0     0     1388.4579     9     1306.0886 UserPurge2: 1      203    6.31%
      0     0     1383.9105     9     1306.0886 UserPurge2: 1      223    5.96%
      0     0     1382.8429    12     1306.0886 UserPurge1: 2      230    5.88%
      0     0     1378.6926    10     1306.0886 UserPurge2: 1      250    5.56%
      0     0     1376.9415    10     1306.0886 UserPurge2: 1      266    5.42%
      0     0     1376.8082    11     1306.0886 UserPurge1: 1      270    5.41%
      0     0     1374.5192    10     1306.0886 UserPurge2: 1      280    5.24%
      0     0     1366.3293     9     1306.0886 UserPurge2: 1      309    4.61%
      0     0     1365.2557    10     1306.0886 UserPurge2: 1      322    4.53%
      0     0     1362.7456    11     1306.0886 UserPurge2: 1      342    4.34%
      0     0     1357.3200    10     1306.0886 UserPurge2: 1      384    3.92%
      0     0     1351.8352     9     1306.0886 UserPurge2: 1      397    3.50%
      0     0     1350.7222     9     1306.0886 UserPurge2: 1      408    3.42%
      0     0     1349.0851    10     1306.0886 UserPurge2: 1      424    3.29%
      0     0     1348.0513    10     1306.0886 UserPurge2: 1      436    3.21%
      0     0     1344.4148    10     1306.0886 UserPurge2: 1      463    2.93%
      0     0     1343.9077    11     1306.0886 UserPurge2: 1      473    2.90%
      0     0     1342.1875    10     1306.0886 UserPurge2: 1      495    2.76%
      0     0     1341.3493     9     1306.0886 UserPurge2: 1      507    2.70%
      0     0     1340.1321    10     1306.0886 UserPurge2: 1      516    2.61%
      0     0     1339.4990    10     1306.0886 UserPurge2: 1      527    2.56%
      0     0     1338.8403    11     1306.0886 UserPurge2: 1      542    2.51%
      0     0     1338.2739    10     1306.0886 UserPurge2: 1      556    2.46%
      0     0     1337.9855    11     1306.0886 UserPurge2: 1      562    2.44%
      0     0     1337.6254    12     1306.0886 UserPurge2: 1      576    2.41%
      0     0     1337.3392    12     1306.0886 UserPurge2: 1      586    2.39%
      0     0     1336.8650    13     1306.0886 UserPurge2: 1      603    2.36%
      0     0     1335.6507    11     1306.0886 UserPurge2: 1      622    2.26%
      0     0     1334.3969    12     1306.0886 UserPurge2: 1      638    2.17%
      0     0     1333.3017    11     1306.0886 UserPurge2: 1      653    2.08%
      0     0     1332.9896    12     1306.0886 UserPurge2: 1      661    2.06%
      0     0     1332.5081    13     1306.0886 UserPurge2: 1      672    2.02%
      0     0     1332.1110    14     1306.0886 UserPurge2: 1      686    1.99%
      0     0     1331.7731    15     1306.0886 UserPurge2: 1      711    1.97%
      0     0     1330.9438    14     1306.0886 UserPurge2: 1      736    1.90%
      0     0     1330.2804    12     1306.0886 UserPurge2: 1      753    1.85%
      0     0     1330.0344    13     1306.0886 UserPurge2: 1      767    1.83%
      0     0     1329.8963    14     1306.0886 UserPurge2: 1      772    1.82%
      0     0     1329.6904    15     1306.0886 UserPurge2: 1      783    1.81%
      0     0     1328.8494    14     1306.0886 UserPurge2: 1      813    1.74%
      0     0     1328.7231    15     1306.0886 UserPurge2: 1      822    1.73%
      0     0     1327.9177    15     1306.0886 UserPurge2: 1      846    1.67%
      0     0     1326.9743    14     1306.0886 UserPurge2: 1      871    1.60%
      0     0     1326.0255    13     1306.0886 UserPurge2: 1      893    1.53%
      0     0     1325.6892    13     1306.0886 UserPurge2: 1      897    1.50%
      0     0     1325.3122    13     1306.0886 UserPurge2: 1      904    1.47%
      0     0     1325.2760    14     1306.0886 UserPurge2: 1      907    1.47%
      0     0     1325.2463    15     1306.0886 UserPurge2: 1      910    1.47%
      0     0     1325.0441    14     1306.0886 UserPurge2: 1      920    1.45%
      0     0     1324.9966    15     1306.0886 UserPurge2: 1      924    1.45%
      0     0     1324.7607    16     1306.0886 UserPurge2: 1      935    1.43%
      0     0     1324.6092    16     1306.0886 UserPurge2: 1      942    1.42%
      0     0     1324.3980    17     1306.0886 UserPurge2: 1      955    1.40%
      0     0     1324.0030    17     1306.0886 UserPurge2: 1      979    1.37%
      0     0     1323.8543    18     1306.0886 UserPurge2: 1      989    1.36%
      0     0     1323.4998    18     1306.0886 UserPurge2: 1     1012    1.33%
      0     0     1323.1862    17     1306.0886 UserPurge2: 1     1028    1.31%
      0     0     1322.7118    16     1306.0886 UserPurge2: 1     1040    1.27%
      0     0     1322.6061    16     1306.0886 UserPurge2: 1     1046    1.26%
      0     0     1322.4724    17     1306.0886 UserPurge2: 1     1053    1.25%
      0     0     1322.3712    18     1306.0886 UserPurge2: 1     1071    1.25%
      0     0     1322.0825    18     1306.0886 UserPurge2: 1     1086    1.22%
      0     2     1322.0825    18     1306.0886     1322.0796     1086    1.22%
Elapsed time = 11.81 sec. (325.94 ticks, tree = 0.01 MB, solutions = 1)
      1     3     1308.2507    27     1306.0886     1322.0796    29711    1.22%
      2     2        cutoff           1306.0886     1308.2507    30054    0.17%
*     3     1      integral     0     1308.2176     1308.2494    30416    0.00%

User cuts applied:  1258

Root node processing (before b&c):
  Real time             =   11.81 sec. (329.52 ticks)
Sequential b&c:
  Real time             =  108.45 sec. (20432.87 ticks)
                          ------------
Total (root+branch&cut) =  120.27 sec. (20762.39 ticks)
@Parameters: 
is_S_cut                                true
is_add_all_yinF                         true
is_start_value                          true
is_usercut                              true
is_visualization                        false
uc_only_rootnode                        false

data                                    Qi
fn                                      data/Qi/instance_800_1000.csv
mode                                    NewSubmodular
solver                                  cplex

p                                       5
r                                       50

EPS                                     1.0e-06
EPS_vio                                 1.0e-04
beta                                    0.10
gap                                     0.00
nodelimit                               Inf
timelimit                               7200.00


@PrintInfos
ItCnt: 30594
Current gap: 0.00 %
Termination Status: OPTIMAL
Primal Status: FEASIBLE_POINT
Solve Time: 120.27 sec
Objective Value: 1308.217550
Number of Nodes:      5

CutInfo: [phase] num / time (sec) 
ZLP             [phase1]     0 / 0.00 [rLC]     0 / 0.00 [rUC]     0 / 0.00 [sLC]     0 / 0.00 [sUC]     0 / 0.00 
OldSubmodular   [phase1]     0 / 0.00 [rLC]     0 / 0.00 [rUC]     0 / 0.00 [sLC]     0 / 0.00 [sUC]     0 / 0.00 
NewSubmodular   [phase1]     0 / 0.00 [rLC]    40 / 4.30 [rUC]    77 / 5.13 [sLC]     1 / 1.33 [sUC]  1237 / 90.22 
PMP             [phase1]     0 / 0.00 [rLC]     2 / 1.05 [rUC]     0 / 0.00 [sLC]     2 / 1.28 [sUC]     2 / 0.99 
Separation Round: [phase1] 0  [rLC] 41  [rUC] 77  [sLC] 2  [sUC] 967
Root Best Bound 1308.250685
Root Best Integer: 1306.088619
Best Bound: 1308.217550
Best Integer: 1308.217550

